memory 250 mb

molecule {
  O    0.000000000000    0.000000000000   -0.070945954134
  H    0.000000000000   -0.761038596191    0.562981888158
  H   -0.000000000000    0.761038596191    0.562981888158
}

set basis sto-3g
energy('scf')
