memory 275 mb

molecule {
  O   -0.000000000000    0.000000000000   -0.071157835160
  H    0.000000000000   -0.758083128457    0.564663240893
  H   -0.000000000000    0.758083128457    0.564663240893
}

set basis sto-3g
gradient('scf')
