set memory 40Gb

molecule {
    C   -1.173364167503   -0.774741425217   -0.000123525603
    H   -1.618801240903   -1.211408471017   -0.890664532703
    H   -1.618878279803   -1.211597844517    0.890286003997
    C   -1.173481847603    0.774562420183    0.000042965497
    H   -1.619052588903    1.211160985983    0.890550747797
    H   -1.619002778803    1.213759742949   -0.890433177406
    C    0.354647814244    0.920624529407    0.000068896562
    H    0.839147944835    1.891698425793    0.000143810593
    O    0.765243965682    0.000109530311   -1.025539713323
    C    0.355118021673   -0.920741956550   -0.000040833729
    H    0.840118873634   -1.891564802739   -0.000088215511
    O    0.765177628910   -0.000016180408    1.025592038548
}

set {
    e_convergence 10
    d_convergence 10
    freeze_core True
    basis_guess True
    cc_type conv
    maxiter 300
}

E = energy('mp2/heavy-aug-cc-pV(Q+d)Z')
psi4.print_out("\n========================OPTAVC-XTPL==========================\n\n")
psi4.print_out("MP2/QZ correlation energy {}\n".format(variable("MP2 CORRELATION ENERGY")))
psi4.print_out("SCF/QZ reference energy {}\n".format(variable("CURRENT REFERENCE ENERGY")))
psi4.print_out("\n\n=============================================================\n")

E = energy('mp2/heavy-aug-cc-pV(T+d)Z')
psi4.print_out("\n========================OPTAVC-XTPL==========================\n\n")
psi4.print_out("MP2/TZ correlation energy {}".format(variable("MP2 CORRELATION ENERGY")))
psi4.print_out("\n\n=============================================================\n")
