set memory 40Gb

molecule {
    C   -1.173364167503   -0.774741425217   -0.000123525603
    H   -1.618801240903   -1.211408471017   -0.890664532703
    H   -1.618878279803   -1.211597844517    0.890286003997
    C   -1.172809531191    0.774444852452    0.000042961020
    H   -1.619284303900    1.211006379914    0.890550741574
    H   -1.619234504863    1.211194514902   -0.890396858926
    C    0.354605616093    0.920719572608    0.000099595346
    H    0.839199438852    1.891746698006    0.000209218954
    O    0.765115250305    0.000200480826   -1.025539963032
    C    0.354898146867   -0.920646920799   -0.000073888418
    H    0.839805314015   -1.891516546072   -0.000153794735
    O    0.765044277387    0.000003760450    1.025591781868
}

set {
    e_convergence 10
    d_convergence 10
    freeze_core True
    basis_guess True
    cc_type conv
    maxiter 300
}

E = energy('mp2/heavy-aug-cc-pV(Q+d)Z')
psi4.print_out("\n========================OPTAVC-XTPL==========================\n\n")
psi4.print_out("MP2/QZ correlation energy {}\n".format(variable("MP2 CORRELATION ENERGY")))
psi4.print_out("SCF/QZ reference energy {}\n".format(variable("CURRENT REFERENCE ENERGY")))
psi4.print_out("\n\n=============================================================\n")

E = energy('mp2/heavy-aug-cc-pV(T+d)Z')
psi4.print_out("\n========================OPTAVC-XTPL==========================\n\n")
psi4.print_out("MP2/TZ correlation energy {}".format(variable("MP2 CORRELATION ENERGY")))
psi4.print_out("\n\n=============================================================\n")
