memory 250 mb

molecule {
  O    0.000000000000    0.000000000000   -0.072225220186
  H    0.000000000000   -0.756052211872    0.573133328451
  H   -0.000000000000    0.756052211872    0.573133328451
}

set basis sto-3g
energy('scf')
