memory 250 mb

molecule {
  O    0.000000000000    0.000000000000   -0.072446541927
  H    0.000000000000   -0.756052211872    0.574889596769
  H   -0.000000000000    0.756052211872    0.574889596769
}

set basis sto-3g
energy('scf')
