memory 4GB

molecule {
    0 1
    C     0.0000000000   0.0000000000  -0.6464792409
    O     0.0000000000   0.0000000000   0.4851827635


}

set {
    reference rhf
    d_convergence 10
    e_convergence 10
    freeze_core True
}

E = energy('mp2/heavy-aug-cc-pV(Q+d)Z')
# print mp2/QZ energy
psi4.print_out("\n========================OPTAVC-XTPL==========================\n\n")
psi4.print_out("MP2/QZ correlation energy {}\n".format(variable("MP2 CORRELATION ENERGY")))
psi4.print_out("SCF/QZ reference energy {}\n".format(variable("CURRENT REFERENCE ENERGY")))
psi4.print_out("\n\n=============================================================\n")

E = energy('mp2/heavy-aug-cc-pV(T+d)Z')
psi4.print_out("\n========================OPTAVC-XTPL==========================\n\n")
psi4.print_out("MP2/TZ correlation energy {}".format(variable("MP2 CORRELATION ENERGY")))
psi4.print_out("\n\n=============================================================\n")
