memory 40Gb

molecule {
    C       -1.1720510404000        -0.7740766078000        -0.0001169754000
    H       -1.6192841891000        -1.2115452809000        -0.8903591627000
    H       -1.6193559736000        -1.2117322153000         0.8899966849000
    C       -1.1721693545000         0.7738951354000         0.0000533965000
    H       -1.6195324701000         1.2112941772000         0.8902643664000
    H       -1.6194812083000         1.2114812584000        -0.8900907843000
    C        0.3546506748000         0.9201247879000         0.0001089028000
    H        0.8390503284000         1.8916125907000         0.0002175367000
    O        0.7588723283000         0.0001552287000        -1.0178708102000
    C        0.3547914372000        -0.9200717146000        -0.0000671501000
    H        0.8393403229000        -1.8914850706000        -0.0001417618000
    O        0.7588015924000        -0.0000401041000         1.0179405982000
}

set {
    e_convergence 14
    d_convergence 14
    freeze_core True
    basis_guess True
    soscf True
    soscf_max_iter 100
    cc_type conv
    maxiter 300
    damping_percentage 40
}

E = energy('mp2/heavy-aug-cc-pV(Q+d)Z')
psi4.print_out("\n========================OPTAVC-XTPL==========================\n\n")
psi4.print_out("MP2/QZ correlation energy {}\n".format(variable("MP2 CORRELATION ENERGY")))
psi4.print_out("SCF/QZ reference energy {}\n".format(variable("CURRENT REFERENCE ENERGY")))
psi4.print_out("\n\n=============================================================\n")

E = energy('mp2/heavy-aug-cc-pV(T+d)Z')
psi4.print_out("\n========================OPTAVC-XTPL==========================\n\n")
psi4.print_out("MP2/TZ correlation energy {}".format(variable("MP2 CORRELATION ENERGY")))
psi4.print_out("\n\n=============================================================\n")
