memory 10GB

molecule {
O  0.0000   0.0000   0.1173
H  0.0000   0.7572  -0.4692
H  0.0000  -0.7572  -0.4692
}

set basis cc-pvtz
set e_convergence 10
set d_convergence 10

E = energy('ccsd(t)')

