memory 4GB

molecule {
0 3
O    -0.5974387171  -0.0000000000   0.0000000000
O     0.5974387171   0.0000000000   0.0000000000

}

set {
    reference uhf
    d_convergence 12
    e_convergence 12
    freeze_core True
}

E = gradient('scf/cc-pVQZ')

