memory 4GB

molecule {
    0 1
    C     0.0000000000   0.0000000000  -0.6464792409
    O     0.0000000000   0.0000000000   0.4851827635


}

set {
    reference rhf
    d_convergence 10
    e_convergence 10
    freeze_core True
}

E = energy('CCSD(T)/heavy-aug-cc-pV(D+d)Z')
