memory 250 mb

molecule {
  O    0.000000000000    0.000000000000   -0.064494967833
  H    0.000000000000   -0.749045999644    0.511790971180
  H   -0.000000000000    0.749045999644    0.511790971180
}

set basis sto-3g
energy('scf')
