memory 250 mb

molecule {
  O    0.000000000000    0.000000000000   -0.064937611315
  H    0.000000000000   -0.749045999644    0.515303507817
  H   -0.000000000000    0.749045999644    0.515303507817
}

set basis sto-3g
energy('scf')
