***, molpro singlepoint
memory 200, M
molecule {
O  0.0000   0.0000   0.1173
H  0.0000   0.7572  -0.4692
H  0.0000  -0.7572  -0.4692
}

basis=cc-pVTZ
gthresh, energy=1.d-12
gthresh, orbital=1.e-12

{rhf
maxit, 100 
orbital, ignore_error=1}

{CCSD(T)
maxit, 100}
