memory 275 mb

molecule {
  O   -0.000000000000    0.000000000000   -0.071240748873
  H    0.000000000000   -0.757488951530    0.565321191290
  H   -0.000000000000    0.757488951530    0.565321191290
}

set basis sto-3g
gradient('scf')
