memory 275 mb

molecule {
  O   -0.000000000000    0.000000000000   -0.070948385739
  H    0.000000000000   -0.761068216913    0.563001183741
  H   -0.000000000000    0.761068216913    0.563001183741
}

set basis sto-3g
gradient('scf')
