memory 250 mb

molecule {
  O    0.000000000000    0.000000000000   -0.071167275875
  H    0.000000000000   -0.761038596191    0.564738156476
  H   -0.000000000000    0.761038596191    0.564738156476
}

set basis sto-3g
energy('scf')
