set memory 40Gb

molecule {
    C   -1.169969463277   -0.774075714550   -0.000125580240
    H   -1.617202611977   -1.211544387650   -0.890367767540
    H   -1.617274396477   -1.211731322050    0.892489791180
    C   -1.170087778135    0.773896028978   -0.000058638427
    H   -1.617520594607    1.211233880120    0.890147369881
    H   -1.617329935298    1.211543339062   -0.890207763946
    C    0.356732246985    0.920125675927    0.000126465703
    H    0.841131893184    1.891613470709    0.000339804886
    O    0.761033604793    0.000226089980   -1.017884834425
    C    0.356873021077   -0.920070814472   -0.000176067283
    H    0.841421911515   -1.891484165894   -0.000279512817
    O    0.760803469775   -0.000109180071    1.017926555010
}

set {
    e_convergence 10
    d_convergence 10
    freeze_core True
    basis_guess True
    cc_type conv
    maxiter 300
}

E = energy('mp2/heavy-aug-cc-pV(Q+d)Z')
psi4.print_out("\n========================OPTAVC-XTPL==========================\n\n")
psi4.print_out("MP2/QZ correlation energy {}\n".format(variable("MP2 CORRELATION ENERGY")))
psi4.print_out("SCF/QZ reference energy {}\n".format(variable("CURRENT REFERENCE ENERGY")))
psi4.print_out("\n\n=============================================================\n")

E = energy('mp2/heavy-aug-cc-pV(T+d)Z')
psi4.print_out("\n========================OPTAVC-XTPL==========================\n\n")
psi4.print_out("MP2/TZ correlation energy {}".format(variable("MP2 CORRELATION ENERGY")))
psi4.print_out("\n\n=============================================================\n")
