set memory 4GB

molecule {
    0 1
    C    0.000000000000    0.000000000000   -0.694886544200                 
    O    0.000000000000    0.000000000000    0.484995023500

}

set {
    reference rhf
    d_convergence 10
    e_convergence 10
    freeze_core True
}

E = energy('CCSD(T)/cc-pVDZ')
