set memory 40Gb

molecule {
    C   -1.174143750690   -0.774963495581   -0.000122054786
    H   -1.619161817890   -1.211058947381   -0.891063737386
    H   -1.616662491307   -1.211176006447    0.890621025369
    C   -1.174268674520    0.774844554394    0.000001660992
    H   -1.619425061479    1.210888200350    0.890898476158
    H   -1.619325949816    1.211090145478   -0.890845848910
    C    0.352840025102    0.922273016984    0.000109192942
    H    0.838805435880    1.892356886109    0.000240917320
    O    0.767388463547    0.000141789337   -1.027332780034
    C    0.352897132176   -0.922230659975   -0.000078138248
    H    0.838928156082   -1.892280814248   -0.000152274472
    O    0.767254325656   -0.000072957523    1.027418799243
}

set {
    e_convergence 10
    d_convergence 10
    freeze_core True
    basis_guess True
    cc_type conv
    maxiter 300
}

E = energy('mp2/heavy-aug-cc-pV(Q+d)Z')
psi4.print_out("\n========================OPTAVC-XTPL==========================\n\n")
psi4.print_out("MP2/QZ correlation energy {}\n".format(variable("MP2 CORRELATION ENERGY")))
psi4.print_out("SCF/QZ reference energy {}\n".format(variable("CURRENT REFERENCE ENERGY")))
psi4.print_out("\n\n=============================================================\n")

E = energy('mp2/heavy-aug-cc-pV(T+d)Z')
psi4.print_out("\n========================OPTAVC-XTPL==========================\n\n")
psi4.print_out("MP2/TZ correlation energy {}".format(variable("MP2 CORRELATION ENERGY")))
psi4.print_out("\n\n=============================================================\n")
