memory 250 mb

molecule {
  O    0.000000000000    0.000000000000   -0.071018038375
  H    0.000000000000   -0.757446767577    0.563553902767
  H   -0.000000000000    0.757446767577    0.563553902767
}

set basis sto-3g
energy('scf')
