set memory 40Gb

molecule {
    C   -1.173364167503   -0.774741425217   -0.000123525603
    H   -1.618801240903   -1.211408471017   -0.893180672729
    H   -1.618817069329   -1.211544731068    0.890530600630
    C   -1.173482821273    0.774561404385    0.000135686801
    H   -1.618991828739    1.211214115521    0.890647811583
    H   -1.619065650548    1.211293789905   -0.890299803832
    C    0.354812186086    0.920709378985    0.000077324126
    H    0.839486545156    1.891696314623    0.000094169459
    O    0.765174272640    0.000093788386   -1.025534667207
    C    0.354951991258   -0.920657136553    0.000015966555
    H    0.839778630536   -1.891566975729   -0.000038470599
    O    0.765245676505    0.000021984094    1.025597094601
}

set {
    e_convergence 10
    d_convergence 10
    freeze_core True
    basis_guess True
    cc_type conv
    maxiter 300
}

E = energy('mp2/heavy-aug-cc-pV(Q+d)Z')
psi4.print_out("\n========================OPTAVC-XTPL==========================\n\n")
psi4.print_out("MP2/QZ correlation energy {}\n".format(variable("MP2 CORRELATION ENERGY")))
psi4.print_out("SCF/QZ reference energy {}\n".format(variable("CURRENT REFERENCE ENERGY")))
psi4.print_out("\n\n=============================================================\n")

E = energy('mp2/heavy-aug-cc-pV(T+d)Z')
psi4.print_out("\n========================OPTAVC-XTPL==========================\n\n")
psi4.print_out("MP2/TZ correlation energy {}".format(variable("MP2 CORRELATION ENERGY")))
psi4.print_out("\n\n=============================================================\n")
