memory 4 gb

molecule {
  O  0.0000000000  0.0000000000 -0.0647162893
  H  0.0000000000 -0.7490459967  0.5135472375
  H  0.0000000000  0.7490459967  0.5135472375
}

set basis sto-3g
energy('scf')
