memory 250 mb

molecule {
  O    0.000000000000    0.000000000000   -0.070724632393
  H    0.000000000000   -0.761038596191    0.561225619839
  H   -0.000000000000    0.761038596191    0.561225619839
}

set basis sto-3g
energy('scf')
