set memory 8GB

molecule {
    0 2
    C       -0.9126285102000         0.8058925650000        -0.4405704333000
    C        0.6014192885000         1.0372800498000        -0.4066802208000
    H        0.8860122251000         2.0480557898000        -0.1183825606000
    H        1.0337450316000         0.8142524222000        -1.3834623314000
    C        1.0397046863000        -0.0082347813000         0.6090244956000
    C       -0.9622393387000        -0.6645352543000        -0.2299540213000
    O        0.1519802573000        -1.1079608575000         0.4191397413000
    H        0.9230081681000         0.3631615313000         1.6327690623000
    H        2.0613369727000        -0.3607634657000         0.4765975151000
    H       -1.3772003704000         1.1239748644000        -1.3746098598000
    H       -1.4001064010000         1.3650095454000         0.3727324828000
    H       -1.8277888878000        -1.3025440164000        -0.1651791601000
}

set {
    reference rohf
    e_convergence 10
    d_convergence 10
    mp2_type conv
    freeze_core True
    
}

E = energy("mp2/heavy-aug-cc-pV(D+d)Z")
