memory 250 mb

molecule {
  O    0.000000000000    0.000000000000   -0.071460681857
  H    0.000000000000   -0.757446767577    0.567066439405
  H   -0.000000000000    0.757446767577    0.567066439405
}

set basis sto-3g
energy('scf')
