memory 250 mb

molecule {
  O    0.000000000000    0.000000000000   -0.072003898445
  H    0.000000000000   -0.756052211872    0.571377060132
  H   -0.000000000000    0.756052211872    0.571377060132
}

set basis sto-3g
energy('scf')
