set memory 40Gb

molecule {
    C   -1.174199517890   -0.774961658783   -0.000122119707
    H   -1.619191780690   -1.211086467183   -0.891051837007
    H   -1.619266333190   -1.211279077683    0.890674642893
    C   -1.174315833390    0.774242505055    0.000039364625
    H   -1.619136837601    1.211500709274    0.890934653297
    H   -1.619091697699    1.211689912562   -0.890785777903
    C    0.353097064726    0.922374566477    0.000099262914
    H    0.839211433796    1.892381996111    0.000209329948
    O    0.767417048803    0.000203656040   -1.027327844284
    C    0.352761058519   -0.922016856913   -0.000074644393
    H    0.838527450006   -1.892197879251   -0.000156400957
    O    0.767344905643    0.000003924884    1.027382511715
}

set {
    e_convergence 10
    d_convergence 10
    freeze_core True
    basis_guess True
    cc_type conv
    maxiter 300
}

E = energy('mp2/heavy-aug-cc-pV(Q+d)Z')
psi4.print_out("\n========================OPTAVC-XTPL==========================\n\n")
psi4.print_out("MP2/QZ correlation energy {}\n".format(variable("MP2 CORRELATION ENERGY")))
psi4.print_out("SCF/QZ reference energy {}\n".format(variable("CURRENT REFERENCE ENERGY")))
psi4.print_out("\n\n=============================================================\n")

E = energy('mp2/heavy-aug-cc-pV(T+d)Z')
psi4.print_out("\n========================OPTAVC-XTPL==========================\n\n")
psi4.print_out("MP2/TZ correlation energy {}".format(variable("MP2 CORRELATION ENERGY")))
psi4.print_out("\n\n=============================================================\n")
