set memory 40Gb

molecule {
    C   -1.174143750690   -0.774963495581   -0.000122054786
    H   -1.619161817890   -1.211058947381   -0.891063737386
    H   -1.619236641990   -1.211251475481    0.890686519114
    C   -1.174259935390    0.774782497019   -0.000502883749
    H   -1.619206497188    1.210764190577    0.891605101532
    H   -1.619565896848    1.211050356771   -0.890139226179
    C    0.352842210434    0.922279060392    0.000294653318
    H    0.838764391436    1.892384592123    0.000347188256
    O    0.767167370242    0.000214883516   -1.027297586055
    C    0.352981521176   -0.922224602127    0.000020100714
    H    0.839055778645   -1.892253077943   -0.000224969882
    O    0.767561998130   -0.000096990042    1.027454002234
}

set {
    e_convergence 10
    d_convergence 10
    freeze_core True
    basis_guess True
    cc_type conv
    maxiter 300
}

E = energy('mp2/heavy-aug-cc-pV(Q+d)Z')
psi4.print_out("\n========================OPTAVC-XTPL==========================\n\n")
psi4.print_out("MP2/QZ correlation energy {}\n".format(variable("MP2 CORRELATION ENERGY")))
psi4.print_out("SCF/QZ reference energy {}\n".format(variable("CURRENT REFERENCE ENERGY")))
psi4.print_out("\n\n=============================================================\n")

E = energy('mp2/heavy-aug-cc-pV(T+d)Z')
psi4.print_out("\n========================OPTAVC-XTPL==========================\n\n")
psi4.print_out("MP2/TZ correlation energy {}".format(variable("MP2 CORRELATION ENERGY")))
psi4.print_out("\n\n=============================================================\n")
