memory 250 mb

molecule {
  O    0.000000000000    0.000000000000   -0.064716289574
  H    0.000000000000   -0.749045999644    0.513547239499
  H   -0.000000000000    0.749045999644    0.513547239499
}

set basis sto-3g
energy('scf')
