memory 250 mb

molecule {
  O    0.000000000000   -0.000178969871   -0.064716289574
  H    0.000000000000   -0.747625808777    0.512450852116
  H   -0.000000000000    0.750466190511    0.514643626881
}

set basis sto-3g
energy('scf')
