set memory 40Gb

molecule {
    C   -1.174143750690   -0.774963495581   -0.000122054786
    H   -1.619161817890   -1.211058947381   -0.893580159117
    H   -1.619175570882   -1.211198507443    0.890930524976
    C   -1.174260906779    0.774781484272    0.000131936969
    H   -1.619348092536    1.210865709304    0.891043468736
    H   -1.619426443547    1.210946627452   -0.890700873657
    C    0.352841192594    0.922278348426    0.000077356963
    H    0.838763164201    1.892383989022    0.000094788945
    O    0.767328602474    0.000095896750   -1.027343267186
    C    0.352980895941   -0.922225334111    0.000015303960
    H    0.839055358363   -1.892253723132   -0.000041351840
    O    0.767399118111    0.000020720306    1.027408332816
}

set {
    e_convergence 10
    d_convergence 10
    freeze_core True
    basis_guess True
    cc_type conv
    maxiter 300
}

E = energy('mp2/heavy-aug-cc-pV(Q+d)Z')
psi4.print_out("\n========================OPTAVC-XTPL==========================\n\n")
psi4.print_out("MP2/QZ correlation energy {}\n".format(variable("MP2 CORRELATION ENERGY")))
psi4.print_out("SCF/QZ reference energy {}\n".format(variable("CURRENT REFERENCE ENERGY")))
psi4.print_out("\n\n=============================================================\n")

E = energy('mp2/heavy-aug-cc-pV(T+d)Z')
psi4.print_out("\n========================OPTAVC-XTPL==========================\n\n")
psi4.print_out("MP2/TZ correlation energy {}".format(variable("MP2 CORRELATION ENERGY")))
psi4.print_out("\n\n=============================================================\n")
