memory 275 mb

molecule {
  O   -0.000000000000    0.000000000000   -0.072223307204
  H    0.000000000000   -0.756119764953    0.573118148156
  H   -0.000000000000    0.756119764953    0.573118148156
}

set basis sto-3g
gradient('scf')
