set memory 40Gb

molecule {
    C   -1.173364167503   -0.774741425217   -0.000123525603
    H   -1.618801240903   -1.211408471017   -0.890664532703
    H   -1.618878279803   -1.211597844517    0.890286003997
    C   -1.173481847603    0.774562420183    0.000042965497
    H   -1.619052588903    1.211160985983    0.890550747797
    H   -1.619002778803    1.208938495617   -0.890360528001
    C    0.354978553950    0.920795661959    0.000130295631
    H    0.839827501959    1.891695435973    0.000274629000
    O    0.765248617511    0.000204243055   -1.025540215884
    C    0.354787268521   -0.920570862084   -0.000106946678
    H    0.839439330560   -1.891567872095   -0.000219382696
    O    0.765172986284   -0.000063480826    1.025591522045
}

set {
    e_convergence 10
    d_convergence 10
    freeze_core True
    basis_guess True
    cc_type conv
    maxiter 300
}

E = energy('mp2/heavy-aug-cc-pV(Q+d)Z')
psi4.print_out("\n========================OPTAVC-XTPL==========================\n\n")
psi4.print_out("MP2/QZ correlation energy {}\n".format(variable("MP2 CORRELATION ENERGY")))
psi4.print_out("SCF/QZ reference energy {}\n".format(variable("CURRENT REFERENCE ENERGY")))
psi4.print_out("\n\n=============================================================\n")

E = energy('mp2/heavy-aug-cc-pV(T+d)Z')
psi4.print_out("\n========================OPTAVC-XTPL==========================\n\n")
psi4.print_out("MP2/TZ correlation energy {}".format(variable("MP2 CORRELATION ENERGY")))
psi4.print_out("\n\n=============================================================\n")
