set memory 40Gb

molecule {
    C   -1.173364167503   -0.774741425217   -0.000123525603
    H   -1.618801240903   -1.211408471017   -0.890664532703
    H   -1.618878279803   -1.211597844517    0.890286003997
    C   -1.173481847603    0.774562420183   -0.000498983188
    H   -1.618849955689    1.211112417325    0.891210471959
    H   -1.619205374868    1.211397704609   -0.889737129612
    C    0.354813206291    0.920710092366    0.000294350561
    H    0.839487775658    1.891696919028    0.000346662595
    O    0.765012939248    0.000212831734   -1.025488816230
    C    0.354952618100   -0.920656403171    0.000020382583
    H    0.839779051795   -1.891566329470   -0.000222806609
    O    0.765408661084   -0.000095778594    1.025642934090
}

set {
    e_convergence 10
    d_convergence 10
    freeze_core True
    basis_guess True
    cc_type conv
    maxiter 300
}

E = energy('mp2/heavy-aug-cc-pV(Q+d)Z')
psi4.print_out("\n========================OPTAVC-XTPL==========================\n\n")
psi4.print_out("MP2/QZ correlation energy {}\n".format(variable("MP2 CORRELATION ENERGY")))
psi4.print_out("SCF/QZ reference energy {}\n".format(variable("CURRENT REFERENCE ENERGY")))
psi4.print_out("\n\n=============================================================\n")

E = energy('mp2/heavy-aug-cc-pV(T+d)Z')
psi4.print_out("\n========================OPTAVC-XTPL==========================\n\n")
psi4.print_out("MP2/TZ correlation energy {}".format(variable("MP2 CORRELATION ENERGY")))
psi4.print_out("\n\n=============================================================\n")
