memory 250 mb

molecule {
  O    0.000000000000    0.000000000000   -0.064716289300
  H    0.000000000000   -0.749045996700    0.513547237500
  H    0.000000000000    0.749045996700    0.513547237500
}

set basis sto-3g
energy('scf')
