memory 250 mb

molecule {
  O    0.000000000000    0.000000000000   -0.071239360116
  H    0.000000000000   -0.757446767577    0.565310171086
  H   -0.000000000000    0.757446767577    0.565310171086
}

set basis sto-3g
energy('scf')
