set memory 40Gb

molecule {
    C   -1.169969463277   -0.774075714550   -0.000125580240
    H   -1.617202611977   -1.211544387650   -0.890367767540
    H   -1.617274396477   -1.211731322050    0.889988080060
    C   -1.170087777377    0.774434462887    0.000044788102
    H   -1.617753465733    1.210634372944    0.890255756237
    H   -1.617702249814    1.210821462742   -0.890099394464
    C    0.356504942543    0.919975272750    0.000100296144
    H    0.840653483725    1.891588284294    0.000208928179
    O    0.760964393321    0.000110195039   -1.017879413891
    C    0.357121363197   -0.920221193366   -0.000075751948
    H    0.841921342072   -1.891509302048   -0.000150360436
    O    0.760893705080   -0.000085150726    1.017931994510
}

set {
    e_convergence 10
    d_convergence 10
    freeze_core True
    basis_guess True
    cc_type conv
    maxiter 300
}

E = energy('mp2/heavy-aug-cc-pV(Q+d)Z')
psi4.print_out("\n========================OPTAVC-XTPL==========================\n\n")
psi4.print_out("MP2/QZ correlation energy {}\n".format(variable("MP2 CORRELATION ENERGY")))
psi4.print_out("SCF/QZ reference energy {}\n".format(variable("CURRENT REFERENCE ENERGY")))
psi4.print_out("\n\n=============================================================\n")

E = energy('mp2/heavy-aug-cc-pV(T+d)Z')
psi4.print_out("\n========================OPTAVC-XTPL==========================\n\n")
psi4.print_out("MP2/TZ correlation energy {}".format(variable("MP2 CORRELATION ENERGY")))
psi4.print_out("\n\n=============================================================\n")
