set memory 40Gb

molecule {
    C   -1.169969463277   -0.774075714550   -0.000125580240
    H   -1.617202611977   -1.214095518804   -0.890419309517
    H   -1.617357086778   -1.211618213153    0.889936531629
    C   -1.170050997147    0.774012366983    0.000060481312
    H   -1.617392317081    1.211408180824    0.890283990356
    H   -1.617333633495    1.211653877094   -0.890071153971
    C    0.356777557405    0.920153000977    0.000127157729
    H    0.841233850246    1.891612558727    0.000269794146
    O    0.760949812256    0.000193391747   -1.017881162592
    C    0.356811033381   -0.920043503933   -0.000109482916
    H    0.841303284039   -1.891485107651   -0.000214061351
    O    0.760870590731   -0.000068965866    1.017930239082
}

set {
    e_convergence 10
    d_convergence 10
    freeze_core True
    basis_guess True
    cc_type conv
    maxiter 300
}

E = energy('mp2/heavy-aug-cc-pV(Q+d)Z')
psi4.print_out("\n========================OPTAVC-XTPL==========================\n\n")
psi4.print_out("MP2/QZ correlation energy {}\n".format(variable("MP2 CORRELATION ENERGY")))
psi4.print_out("SCF/QZ reference energy {}\n".format(variable("CURRENT REFERENCE ENERGY")))
psi4.print_out("\n\n=============================================================\n")

E = energy('mp2/heavy-aug-cc-pV(T+d)Z')
psi4.print_out("\n========================OPTAVC-XTPL==========================\n\n")
psi4.print_out("MP2/TZ correlation energy {}".format(variable("MP2 CORRELATION ENERGY")))
psi4.print_out("\n\n=============================================================\n")
